x = 16;
y = 14;
c = 80;
n = 40;

p = [48  42  14  44  77  35  90  53  50  15  30  12  17  27  45  18  72  61  51  56  48  29  49  54  76  96  85  36  84  41  39  25  71  73  80  54  88  14  31  82];
w = [9  10  3  1  7  1  8  5  6  10  2  5  4  9  6  7  10  1  1  5  5  3  8  5  2  4  2  5  2  8  7  3  6  4  9  5  8  3  9  1];
s = [1  3  3  9  2  10  7  11  14  14  13  11  6  7  7  6  14  13  14  2  8  2  13  1  14  14  3  7  12  5  7  1  13  14  11  2  12  14  3  4];
